# Solution for model r5_t27_m5_5
# Finished Task: 24 / 27
# Makespan: 608.0, Total Distance: 1122.0, Total Time: 0.7448
# R O S F
0 0 5 0.0 0.0
1 1 23 0.0 0.0
2 2 31 0.0 0.0
3 3 6 0.0 0.0
4 4 10 0.0 0.0
5 0 15 171.0 199.0
6 3 7 288.0 312.0
7 3 12 345.0 375.0
8 4 21 260.0 288.0
9 4 30 425.0 463.0
10 4 8 160.0 183.0
11 -1 -1 -1.0 -1.0
12 3 -1 468.0 505.0
13 2 -1 588.0 608.0
14 -1 -1 -1.0 -1.0
15 0 29 298.0 318.0
16 1 19 318.0 342.0
17 0 -1 556.0 590.0
18 1 -1 540.0 568.0
19 1 18 360.0 387.0
20 4 -1 542.0 574.0
21 4 9 375.0 408.0
22 -1 -1 -1.0 -1.0
23 1 16 219.0 253.0
24 2 27 357.0 396.0
25 0 28 360.0 392.0
26 0 17 497.0 523.0
27 2 13 442.0 477.0
28 0 26 409.0 432.0
29 0 25 328.0 349.0
30 4 20 501.0 531.0
31 2 24 240.0 260.0
